
Gurobi 9.0.1 (linux64) logging started Thu Apr 30 05:57:40 2020

Gurobi Optimizer version 9.0.1 build v9.0.1rc0 (linux64)
Optimize a model with 896 rows, 990 columns and 6984 nonzeros
Model fingerprint: 0x4900ac02
Variable types: 0 continuous, 990 integer (980 binary)
Coefficient statistics:
  Matrix range     [1e+00, 5e+00]
  Objective range  [5e+00, 9e+01]
  Bounds range     [1e+00, 1e+00]
  RHS range        [1e+00, 1e+00]

User MIP start produced solution with objective 501 (0.00s)
Loaded user MIP start with objective 501

Presolve removed 260 rows and 384 columns
Presolve time: 0.06s
Presolved: 636 rows, 606 columns, 4806 nonzeros
Variable types: 0 continuous, 606 integer (598 binary)

Root relaxation: objective 3.923186e+02, 477 iterations, 0.02 seconds

    Nodes    |    Current Node    |     Objective Bounds      |     Work
 Expl Unexpl |  Obj  Depth IntInf | Incumbent    BestBd   Gap | It/Node Time

     0     0  392.31857    0  252  501.00000  392.31857  21.7%     -    0s
     0     0  405.54208    0  220  501.00000  405.54208  19.1%     -    0s
     0     0  405.63847    0  215  501.00000  405.63847  19.0%     -    0s
     0     0  405.63927    0  215  501.00000  405.63927  19.0%     -    0s
     0     0  422.86602    0  253  501.00000  422.86602  15.6%     -    0s
     0     0  423.17696    0  253  501.00000  423.17696  15.5%     -    0s
     0     0  423.18379    0  253  501.00000  423.18379  15.5%     -    0s
     0     0  434.43111    0  261  501.00000  434.43111  13.3%     -    0s
     0     0  434.68835    0  259  501.00000  434.68835  13.2%     -    0s
     0     0  434.84194    0  258  501.00000  434.84194  13.2%     -    0s
     0     0  434.88971    0  256  501.00000  434.88971  13.2%     -    0s
     0     0  434.89200    0  257  501.00000  434.89200  13.2%     -    0s
     0     0  439.38158    0  259  501.00000  439.38158  12.3%     -    0s
     0     0  440.34174    0  268  501.00000  440.34174  12.1%     -    0s
     0     0  440.38477    0  269  501.00000  440.38477  12.1%     -    0s
     0     0  440.39484    0  270  501.00000  440.39484  12.1%     -    0s
     0     0  443.08159    0  265  501.00000  443.08159  11.6%     -    0s
     0     0  443.76419    0  263  501.00000  443.76419  11.4%     -    0s
     0     0  443.97019    0  270  501.00000  443.97019  11.4%     -    1s
     0     0  443.98477    0  275  501.00000  443.98477  11.4%     -    1s
     0     0  444.31700    0  274  501.00000  444.31700  11.3%     -    1s
     0     0  444.36114    0  271  501.00000  444.36114  11.3%     -    1s
     0     0  444.40917    0  267  501.00000  444.40917  11.3%     -    1s
     0     0  444.41218    0  273  501.00000  444.41218  11.3%     -    1s
     0     0  445.75927    0  265  501.00000  445.75927  11.0%     -    1s
     0     0  445.91801    0  267  501.00000  445.91801  11.0%     -    1s
     0     0  445.95388    0  267  501.00000  445.95388  11.0%     -    1s
     0     0  446.81552    0  270  501.00000  446.81552  10.8%     -    1s
     0     0  447.26351    0  266  501.00000  447.26351  10.7%     -    1s
     0     0  447.30521    0  271  501.00000  447.30521  10.7%     -    1s
     0     0  447.33450    0  274  501.00000  447.33450  10.7%     -    1s
     0     0  447.99889    0  268  501.00000  447.99889  10.6%     -    1s
     0     0  448.16120    0  275  501.00000  448.16120  10.5%     -    1s
     0     0  448.23325    0  273  501.00000  448.23325  10.5%     -    1s
     0     0  448.23943    0  275  501.00000  448.23943  10.5%     -    1s
     0     0  448.40003    0  279  501.00000  448.40003  10.5%     -    1s
     0     0  448.40003    0  279  501.00000  448.40003  10.5%     -    1s
     0     0  448.49432    0  252  501.00000  448.49432  10.5%     -    1s
     0     0  448.49432    0  255  501.00000  448.49432  10.5%     -    1s
     0     0  448.49432    0  264  501.00000  448.49432  10.5%     -    1s
     0     0  448.49432    0  263  501.00000  448.49432  10.5%     -    1s
     0     0  448.49432    0  263  501.00000  448.49432  10.5%     -    1s
     0     0  448.49432    0  272  501.00000  448.49432  10.5%     -    2s
     0     0  448.49432    0  274  501.00000  448.49432  10.5%     -    2s
     0     0  448.49432    0  276  501.00000  448.49432  10.5%     -    2s
     0     0  449.11536    0  273  501.00000  449.11536  10.4%     -    2s
     0     0  449.82901    0  276  501.00000  449.82901  10.2%     -    2s
     0     0  449.96514    0  284  501.00000  449.96514  10.2%     -    2s
     0     0  450.00695    0  281  501.00000  450.00695  10.2%     -    2s
     0     0  450.02748    0  285  501.00000  450.02748  10.2%     -    2s
     0     0  452.87063    0  289  501.00000  452.87063  9.61%     -    2s
     0     0  453.18872    0  288  501.00000  453.18872  9.54%     -    2s
     0     0  453.27791    0  292  501.00000  453.27791  9.53%     -    2s
     0     0  453.31538    0  288  501.00000  453.31538  9.52%     -    2s
     0     0  454.16711    0  280  501.00000  454.16711  9.35%     -    2s
     0     0  454.36628    0  280  501.00000  454.36628  9.31%     -    2s
     0     0  454.40046    0  285  501.00000  454.40046  9.30%     -    2s
     0     0  454.62188    0  282  501.00000  454.62188  9.26%     -    2s
     0     0  454.62188    0  282  501.00000  454.62188  9.26%     -    2s
     0     2  454.66604    0  282  501.00000  454.66604  9.25%     -    2s
H   54    32                     491.0000000  459.96616  6.32%   148    3s
H  201    66                     487.0000000  471.94008  3.09%   101    4s
   217    65     cutoff   12       487.00000  473.25118  2.82%  96.8    5s

Cutting planes:
  MIR: 22
  Zero half: 41
  RLT: 163

Explored 611 nodes (43773 simplex iterations) in 6.72 seconds
Thread count was 1 (of 40 available processors)

Solution count 3: 487 491 501 

Optimal solution found (tolerance 1.00e-04)
Best objective 4.870000000000e+02, best bound 4.870000000000e+02, gap 0.0000%

User-callback calls 2864, time in user-callback 0.00 sec
